<?xml version = "1.0" standalone="yes"?>
<!-- This file has been generated by DOcplex version 2.23.222  -->
<CPLEXSolution version="1.0">
 <header
   problemName="CVRP"
   objectiveValue="6127.91"
  />
 <variables>
  <variable name="x_0_3" index="2" value="1.00000"/>
  <variable name="x_0_4" index="3" value="1.00000"/>
  <variable name="x_0_7" index="6" value="1.00000"/>
  <variable name="x_0_8" index="7" value="1.00000"/>
  <variable name="x_1_0" index="10" value="1.00000"/>
  <variable name="x_2_6" index="25" value="1.00000"/>
  <variable name="x_3_2" index="32" value="1.00000"/>
  <variable name="x_4_10" index="49" value="1.00000"/>
  <variable name="x_5_1" index="51" value="1.00000"/>
  <variable name="x_6_0" index="60" value="1.00000"/>
  <variable name="x_7_0" index="70" value="1.00000"/>
  <variable name="x_8_5" index="85" value="1.00000"/>
  <variable name="x_9_0" index="90" value="1.00000"/>
  <variable name="x_10_9" index="109" value="1.00000"/>
  <variable name="u_1" index="110" value="66.00000"/>
  <variable name="u_2" index="111" value="64.00000"/>
  <variable name="u_3" index="112" value="23.00000"/>
  <variable name="u_4" index="113" value="13.00000"/>
  <variable name="u_5" index="114" value="44.00000"/>
  <variable name="u_6" index="115" value="66.00000"/>
  <variable name="u_7" index="116" value="66.00000"/>
  <variable name="u_8" index="117" value="25.00000"/>
  <variable name="u_9" index="118" value="66.00000"/>
  <variable name="u_10" index="119" value="32.00000"/>
 </variables>
</CPLEXSolution>
